benchmark/results/graph__10-1000-0.10-04_0/graph__10-1000-0.10-04_0_Quinton_Benders_primal_sub.lp
\ This file has been generated by DOcplex
\ ENCODING=ISO-8859-1
\Problem name: Quinton Benders_primal_sub

Maximize
 obj: tau
Subject To
 c1: tau <= 0.001036269430
 c2: y_a0_proc_0 + y_a0_proc_1 + y_a0_proc_2 - tau = 0
 c3: y_a0_proc_0 <= 0
 c4: y_a0_proc_1 <= 1
 c5: y_a0_proc_2 <= 0
 c6: tau <= 0.001779359431
 c7: y_a1_proc_1 + y_a1_proc_3 - tau = 0
 c8: y_a1_proc_1 <= 1
 c9: y_a1_proc_3 <= 0
 c10: tau <= 0.001068376068
 c11: y_a2_proc_0 + y_a2_proc_1 + y_a2_proc_2 + y_a2_proc_3 - tau = 0
 c12: y_a2_proc_0 <= 0
 c13: y_a2_proc_1 <= 0
 c14: y_a2_proc_2 <= 1
 c15: y_a2_proc_3 <= 0
 c16: tau <= 0.001200480192
 c17: y_a3_proc_0 + y_a3_proc_1 + y_a3_proc_2 + y_a3_proc_3 - tau = 0
 c18: y_a3_proc_0 <= 0
 c19: y_a3_proc_1 <= 0
 c20: y_a3_proc_2 <= 1
 c21: y_a3_proc_3 <= 0
 c22: tau <= 0.001091703057
 c23: y_a4_proc_1 + y_a4_proc_2 - tau = 0
 c24: y_a4_proc_1 <= 1
 c25: y_a4_proc_2 <= 0
 c26: tau <= 0.001560062402
 c27: y_a5_proc_0 + y_a5_proc_1 + y_a5_proc_2 + y_a5_proc_3 - tau = 0
 c28: y_a5_proc_0 <= 0
 c29: y_a5_proc_1 <= 1
 c30: y_a5_proc_2 <= 0
 c31: y_a5_proc_3 <= 0
 c32: tau <= 0.001754385965
 c33: y_a6_proc_0 + y_a6_proc_2 + y_a6_proc_3 - tau = 0
 c34: y_a6_proc_0 <= 0
 c35: y_a6_proc_2 <= 0
 c36: y_a6_proc_3 <= 1
 c37: tau <= 0.000986193294
 c38: y_a7_proc_1 + y_a7_proc_3 - tau = 0
 c39: y_a7_proc_1 <= 0
 c40: y_a7_proc_3 <= 1
 c41: tau <= 0.000889679715
 c42: y_a8_proc_1 - tau = 0
 c43: y_a8_proc_1 <= 1
 c44: tau <= 0.001763668430
 c45: y_a9_proc_0 + y_a9_proc_1 + y_a9_proc_2 + y_a9_proc_3 - tau = 0
 c46: y_a9_proc_0 <= 1
 c47: y_a9_proc_1 <= 0
 c48: y_a9_proc_2 <= 0
 c49: y_a9_proc_3 <= 0
 c50: u_a1 - u_a0 - 1195 y_a0_proc_0 - 965 y_a0_proc_1 - 1184 y_a0_proc_2 >= 0
 c51: u_a2 - u_a0 - 1195 y_a0_proc_0 - 965 y_a0_proc_1 - 1184 y_a0_proc_2 >= 0
 c52: u_a0 - u_a3 - 1266 y_a3_proc_0 - 693 y_a3_proc_1 - 833 y_a3_proc_2
      - 747 y_a3_proc_3 >= -2
 c53: u_a4 - u_a2 - 1185 y_a2_proc_0 - 871 y_a2_proc_1 - 936 y_a2_proc_2
      - 1125 y_a2_proc_3 >= 0
 c54: u_a4 - u_a5 - 1186 y_a5_proc_0 - 641 y_a5_proc_1 - 1011 y_a5_proc_2
      - 966 y_a5_proc_3 >= 0
 c55: u_a0 - u_a6 - 1034 y_a6_proc_0 - 789 y_a6_proc_2 - 570 y_a6_proc_3 >= 0
 c56: u_a5 - u_a7 - 1214 y_a7_proc_1 - 1014 y_a7_proc_3 >= 0
 c57: u_a8 - u_a1 - 562 y_a1_proc_1 - 1160 y_a1_proc_3 >= 0
 c58: u_a3 - u_a9 - 567 y_a9_proc_0 - 753 y_a9_proc_1 - 1089 y_a9_proc_2
      - 1151 y_a9_proc_3 >= 0
 c59: u_a3 - u_a1 - 562 y_a1_proc_1 - 1160 y_a1_proc_3 >= 0
 c60: u_a9 - u_a1 - 562 y_a1_proc_1 - 1160 y_a1_proc_3 >= 0
 c61: - 1214 y_a7_proc_1 - 1014 y_a7_proc_3 >= -1
 c62: u_a7 - u_a2 - 1185 y_a2_proc_0 - 871 y_a2_proc_1 - 936 y_a2_proc_2
      - 1125 y_a2_proc_3 >= 0
 c63: u_a6 - u_a3 - 1266 y_a3_proc_0 - 693 y_a3_proc_1 - 833 y_a3_proc_2
      - 747 y_a3_proc_3 >= -1
 c64: u_a9 - u_a0 - 1195 y_a0_proc_0 - 965 y_a0_proc_1 - 1184 y_a0_proc_2 >= 0
 c65: u_a4 - u_a8 - 1124 y_a8_proc_1 >= 0
 c66: u_a6 - u_a4 - 916 y_a4_proc_1 - 949 y_a4_proc_2 >= -1
 c67: u_a7 - u_a4 - 916 y_a4_proc_1 - 949 y_a4_proc_2 >= -1
 c68: u_a1 - u_a0 - 965 y_a0_proc_1 >= 0
 c69: u_a0 - u_a1 - 562 y_a1_proc_1 >= -1
 c70: u_a2 - u_a0 - 1184 y_a0_proc_2 >= -2532
 c71: u_a2 - u_a0 - 1195 y_a0_proc_0 >= -3798
 c72: u_a2 - u_a0 - 965 y_a0_proc_1 >= -2532
 c73: u_a0 - u_a2 - 936 y_a2_proc_2 >= -1
 c74: u_a0 - u_a2 - 1185 y_a2_proc_0 >= -1267
 c75: u_a0 - u_a2 - 871 y_a2_proc_1 >= -1
 c76: u_a3 - u_a0 - 1184 y_a0_proc_2 >= 0
 c77: u_a3 - u_a0 - 1195 y_a0_proc_0 >= -1266
 c78: u_a3 - u_a0 - 965 y_a0_proc_1 >= 0
 c79: u_a0 - u_a3 - 833 y_a3_proc_2 >= -2533
 c80: u_a0 - u_a3 - 1266 y_a3_proc_0 >= -3799
 c81: u_a0 - u_a3 - 693 y_a3_proc_1 >= -2533
 c82: u_a4 - u_a0 - 1184 y_a0_proc_2 >= -2532
 c83: u_a4 - u_a0 - 965 y_a0_proc_1 >= 0
 c84: u_a0 - u_a4 - 949 y_a4_proc_2 >= -2533
 c85: u_a0 - u_a4 - 916 y_a4_proc_1 >= -1
 c86: u_a5 - u_a0 - 1184 y_a0_proc_2 >= -2532
 c87: u_a5 - u_a0 - 1195 y_a0_proc_0 >= -2532
 c88: u_a5 - u_a0 - 965 y_a0_proc_1 >= 0
 c89: u_a0 - u_a5 - 1011 y_a5_proc_2 >= -2533
 c90: u_a0 - u_a5 - 1186 y_a5_proc_0 >= -2533
 c91: u_a0 - u_a5 - 641 y_a5_proc_1 >= -1
 c92: u_a6 - u_a0 - 1184 y_a0_proc_2 >= -1
 c93: u_a6 - u_a0 - 1195 y_a0_proc_0 >= -1
 c94: u_a0 - u_a6 - 789 y_a6_proc_2 >= -5064
 c95: u_a0 - u_a6 - 1034 y_a6_proc_0 >= -5064
 c96: u_a7 - u_a0 - 965 y_a0_proc_1 >= 0
 c97: u_a0 - u_a7 - 1214 y_a7_proc_1 >= -2533
 c98: u_a8 - u_a0 - 965 y_a0_proc_1 >= 0
 c99: u_a0 - u_a8 - 1124 y_a8_proc_1 >= -1
 c100: u_a9 - u_a0 - 1184 y_a0_proc_2 >= -3798
 c101: u_a9 - u_a0 - 1195 y_a0_proc_0 >= -2532
 c102: u_a9 - u_a0 - 965 y_a0_proc_1 >= -2532
 c103: u_a0 - u_a9 - 1089 y_a9_proc_2 >= -1267
 c104: u_a0 - u_a9 - 567 y_a9_proc_0 >= -1
 c105: u_a0 - u_a9 - 753 y_a9_proc_1 >= -1
 c106: u_a2 - u_a1 - 1160 y_a1_proc_3 >= -1267
 c107: u_a2 - u_a1 - 562 y_a1_proc_1 >= -1
 c108: u_a1 - u_a2 - 1125 y_a2_proc_3 >= -3798
 c109: u_a1 - u_a2 - 871 y_a2_proc_1 >= -2532
 c110: u_a3 - u_a1 - 1160 y_a1_proc_3 >= -3798
 c111: u_a3 - u_a1 - 562 y_a1_proc_1 >= -2532
 c112: u_a1 - u_a3 - 747 y_a3_proc_3 >= -1267
 c113: u_a1 - u_a3 - 693 y_a3_proc_1 >= -1
 c114: u_a4 - u_a1 - 562 y_a1_proc_1 >= 0
 c115: u_a1 - u_a4 - 916 y_a4_proc_1 >= -1
 c116: u_a5 - u_a1 - 1160 y_a1_proc_3 >= -2532
 c117: u_a5 - u_a1 - 562 y_a1_proc_1 >= 0
 c118: u_a1 - u_a5 - 966 y_a5_proc_3 >= -2533
 c119: u_a1 - u_a5 - 641 y_a5_proc_1 >= -1
 c120: u_a6 - u_a1 - 1160 y_a1_proc_3 >= -2533
 c121: u_a1 - u_a6 - 570 y_a6_proc_3 >= 0
 c122: u_a7 - u_a1 - 1160 y_a1_proc_3 >= -2532
 c123: u_a7 - u_a1 - 562 y_a1_proc_1 >= -2532
 c124: u_a1 - u_a7 - 1014 y_a7_proc_3 >= -1
 c125: u_a1 - u_a7 - 1214 y_a7_proc_1 >= -1
 c126: u_a8 - u_a1 - 562 y_a1_proc_1 >= 0
 c127: u_a1 - u_a8 - 1124 y_a8_proc_1 >= -1
 c128: u_a9 - u_a1 - 1160 y_a1_proc_3 >= -3798
 c129: u_a9 - u_a1 - 562 y_a1_proc_1 >= -2532
 c130: u_a1 - u_a9 - 1151 y_a9_proc_3 >= -1267
 c131: u_a1 - u_a9 - 753 y_a9_proc_1 >= -1
 c132: u_a3 - u_a2 - 936 y_a2_proc_2 >= 0
 c133: u_a3 - u_a2 - 1125 y_a2_proc_3 >= -2532
 c134: u_a3 - u_a2 - 1185 y_a2_proc_0 >= -2532
 c135: u_a3 - u_a2 - 871 y_a2_proc_1 >= -2532
 c136: u_a2 - u_a3 - 833 y_a3_proc_2 >= -1
 c137: u_a2 - u_a3 - 747 y_a3_proc_3 >= -2533
 c138: u_a2 - u_a3 - 1266 y_a3_proc_0 >= -2533
 c139: u_a2 - u_a3 - 693 y_a3_proc_1 >= -2533
 c140: u_a4 - u_a2 - 936 y_a2_proc_2 >= -2532
 c141: u_a4 - u_a2 - 871 y_a2_proc_1 >= -2532
 c142: u_a2 - u_a4 - 949 y_a4_proc_2 >= -1
 c143: u_a2 - u_a4 - 916 y_a4_proc_1 >= -1
 c144: u_a5 - u_a2 - 936 y_a2_proc_2 >= -2532
 c145: u_a5 - u_a2 - 1125 y_a2_proc_3 >= -3798
 c146: u_a5 - u_a2 - 1185 y_a2_proc_0 >= -3798
 c147: u_a5 - u_a2 - 871 y_a2_proc_1 >= -2532
 c148: u_a2 - u_a5 - 1011 y_a5_proc_2 >= -1
 c149: u_a2 - u_a5 - 966 y_a5_proc_3 >= -1267
 c150: u_a2 - u_a5 - 1186 y_a5_proc_0 >= -1267
 c151: u_a2 - u_a5 - 641 y_a5_proc_1 >= -1
 c152: u_a6 - u_a2 - 936 y_a2_proc_2 >= -2533
 c153: u_a6 - u_a2 - 1125 y_a2_proc_3 >= -2533
 c154: u_a6 - u_a2 - 1185 y_a2_proc_0 >= -3799
 c155: u_a2 - u_a6 - 789 y_a6_proc_2 >= 0
 c156: u_a2 - u_a6 - 570 y_a6_proc_3 >= 0
 c157: u_a2 - u_a6 - 1034 y_a6_proc_0 >= -1266
 c158: u_a7 - u_a2 - 1125 y_a2_proc_3 >= -2532
 c159: u_a7 - u_a2 - 871 y_a2_proc_1 >= -3798
 c160: u_a2 - u_a7 - 1014 y_a7_proc_3 >= -1
 c161: u_a2 - u_a7 - 1214 y_a7_proc_1 >= -1267
 c162: u_a8 - u_a2 - 871 y_a2_proc_1 >= -1
 c163: u_a2 - u_a8 - 1124 y_a8_proc_1 >= -2532
 c164: u_a9 - u_a2 - 936 y_a2_proc_2 >= -2532
 c165: u_a9 - u_a2 - 1125 y_a2_proc_3 >= -3798
 c166: u_a9 - u_a2 - 1185 y_a2_proc_0 >= -2532
 c167: u_a9 - u_a2 - 871 y_a2_proc_1 >= -3798
 c168: u_a2 - u_a9 - 1089 y_a9_proc_2 >= -1
 c169: u_a2 - u_a9 - 1151 y_a9_proc_3 >= -1267
 c170: u_a2 - u_a9 - 567 y_a9_proc_0 >= -1
 c171: u_a2 - u_a9 - 753 y_a9_proc_1 >= -1267
 c172: u_a4 - u_a3 - 833 y_a3_proc_2 >= -2531
 c173: u_a4 - u_a3 - 693 y_a3_proc_1 >= -2531
 c174: u_a3 - u_a4 - 949 y_a4_proc_2 >= -2
 c175: u_a3 - u_a4 - 916 y_a4_proc_1 >= -2
 c176: u_a5 - u_a3 - 833 y_a3_proc_2 >= -1
 c177: u_a5 - u_a3 - 747 y_a3_proc_3 >= -1267
 c178: u_a5 - u_a3 - 1266 y_a3_proc_0 >= -1267
 c179: u_a5 - u_a3 - 693 y_a3_proc_1 >= -1
 c180: u_a3 - u_a5 - 1011 y_a5_proc_2 >= -2532
 c181: u_a3 - u_a5 - 966 y_a5_proc_3 >= -3798
 c182: u_a3 - u_a5 - 1186 y_a5_proc_0 >= -3798
 c183: u_a3 - u_a5 - 641 y_a5_proc_1 >= -2532
 c184: u_a6 - u_a3 - 833 y_a3_proc_2 >= -2533
 c185: u_a6 - u_a3 - 747 y_a3_proc_3 >= -2533
 c186: u_a6 - u_a3 - 1266 y_a3_proc_0 >= -3799
 c187: u_a3 - u_a6 - 789 y_a6_proc_2 >= 0
 c188: u_a3 - u_a6 - 570 y_a6_proc_3 >= 0
 c189: u_a3 - u_a6 - 1034 y_a6_proc_0 >= -1266
 c190: u_a7 - u_a3 - 747 y_a3_proc_3 >= -1
 c191: u_a7 - u_a3 - 693 y_a3_proc_1 >= -1267
 c192: u_a3 - u_a7 - 1014 y_a7_proc_3 >= -2532
 c193: u_a3 - u_a7 - 1214 y_a7_proc_1 >= -3798
 c194: u_a8 - u_a3 - 693 y_a3_proc_1 >= -1
 c195: u_a3 - u_a8 - 1124 y_a8_proc_1 >= -2532
 c196: u_a9 - u_a3 - 833 y_a3_proc_2 >= -2533
 c197: u_a9 - u_a3 - 747 y_a3_proc_3 >= -3799
 c198: u_a9 - u_a3 - 1266 y_a3_proc_0 >= -2533
 c199: u_a9 - u_a3 - 693 y_a3_proc_1 >= -3799
 c200: u_a3 - u_a9 - 1089 y_a9_proc_2 >= 0
 c201: u_a3 - u_a9 - 1151 y_a9_proc_3 >= -1266
 c202: u_a3 - u_a9 - 567 y_a9_proc_0 >= 0
 c203: u_a3 - u_a9 - 753 y_a9_proc_1 >= -1266
 c204: u_a5 - u_a4 - 949 y_a4_proc_2 >= -2533
 c205: u_a5 - u_a4 - 916 y_a4_proc_1 >= -1
 c206: u_a4 - u_a5 - 1011 y_a5_proc_2 >= -2532
 c207: u_a4 - u_a5 - 641 y_a5_proc_1 >= 0
 c208: u_a6 - u_a4 - 949 y_a4_proc_2 >= -5065
 c209: u_a4 - u_a6 - 789 y_a6_proc_2 >= 0
 c210: u_a7 - u_a4 - 916 y_a4_proc_1 >= -2533
 c211: u_a4 - u_a7 - 1214 y_a7_proc_1 >= 0
 c212: u_a8 - u_a4 - 916 y_a4_proc_1 >= -1
 c213: u_a4 - u_a8 - 1124 y_a8_proc_1 >= 0
 c214: u_a9 - u_a4 - 949 y_a4_proc_2 >= -1267
 c215: u_a9 - u_a4 - 916 y_a4_proc_1 >= -1
 c216: u_a4 - u_a9 - 1089 y_a9_proc_2 >= -3798
 c217: u_a4 - u_a9 - 753 y_a9_proc_1 >= -2532
 c218: u_a6 - u_a5 - 1011 y_a5_proc_2 >= -3799
 c219: u_a6 - u_a5 - 966 y_a5_proc_3 >= -2533
 c220: u_a6 - u_a5 - 1186 y_a5_proc_0 >= -3799
 c221: u_a5 - u_a6 - 789 y_a6_proc_2 >= -1266
 c222: u_a5 - u_a6 - 570 y_a6_proc_3 >= 0
 c223: u_a5 - u_a6 - 1034 y_a6_proc_0 >= -1266
 c224: u_a7 - u_a5 - 966 y_a5_proc_3 >= -2532
 c225: u_a7 - u_a5 - 641 y_a5_proc_1 >= -2532
 c226: u_a5 - u_a7 - 1014 y_a7_proc_3 >= -1
 c227: u_a5 - u_a7 - 1214 y_a7_proc_1 >= -1
 c228: u_a8 - u_a5 - 641 y_a5_proc_1 >= -1
 c229: u_a5 - u_a8 - 1124 y_a8_proc_1 >= 0
 c230: u_a9 - u_a5 - 1011 y_a5_proc_2 >= -3799
 c231: u_a9 - u_a5 - 966 y_a5_proc_3 >= -3799
 c232: u_a9 - u_a5 - 1186 y_a5_proc_0 >= -2533
 c233: u_a9 - u_a5 - 641 y_a5_proc_1 >= -2533
 c234: u_a5 - u_a9 - 1089 y_a9_proc_2 >= -1266
 c235: u_a5 - u_a9 - 1151 y_a9_proc_3 >= -1266
 c236: u_a5 - u_a9 - 567 y_a9_proc_0 >= 0
 c237: u_a5 - u_a9 - 753 y_a9_proc_1 >= 0
 c238: u_a7 - u_a6 - 570 y_a6_proc_3 >= 0
 c239: u_a6 - u_a7 - 1014 y_a7_proc_3 >= -1
 c240: u_a9 - u_a6 - 789 y_a6_proc_2 >= -3798
 c241: u_a9 - u_a6 - 570 y_a6_proc_3 >= -2532
 c242: u_a9 - u_a6 - 1034 y_a6_proc_0 >= -2532
 c243: u_a6 - u_a9 - 1089 y_a9_proc_2 >= -1267
 c244: u_a6 - u_a9 - 1151 y_a9_proc_3 >= -1
 c245: u_a6 - u_a9 - 567 y_a9_proc_0 >= -1
 c246: u_a8 - u_a7 - 1214 y_a7_proc_1 >= -2532
 c247: u_a7 - u_a8 - 1124 y_a8_proc_1 >= -1
 c248: u_a9 - u_a7 - 1014 y_a7_proc_3 >= -1
 c249: u_a9 - u_a7 - 1214 y_a7_proc_1 >= -1267
 c250: u_a7 - u_a9 - 1151 y_a9_proc_3 >= -2532
 c251: u_a7 - u_a9 - 753 y_a9_proc_1 >= -3798
 c252: u_a9 - u_a8 - 1124 y_a8_proc_1 >= -2532
 c253: u_a8 - u_a9 - 753 y_a9_proc_1 >= -1

Bounds
End
