benchmark/results/graph__10-1000-0.10-04_0/graph__10-1000-0.10-04_0_Quinton_Benders_primal_sub.txt
solution for: Quinton Benders_primal_sub
objective: 0.000198334
status: OPTIMAL_SOLUTION(2)
u_a0=0.113
u_a1=0.304
u_a2=0.304
u_a3=0.528
u_a4=0.818
u_a5=0.691
u_a7=0.490
u_a8=0.416
u_a9=0.416
tau=0.000
y_a0_proc_1=0.000
y_a1_proc_1=0.000
y_a2_proc_2=0.000
y_a3_proc_2=0.000
y_a4_proc_1=0.000
y_a5_proc_1=0.000
y_a6_proc_3=0.000
y_a7_proc_3=0.000
y_a8_proc_1=0.000
y_a9_proc_0=0.000
